164
0 120 117 112 95 129 36 151 21 42 
41 118 97 71 158 6 45 14 18 142 
138 122 31 102 125 105 153 50 56 108 
5 17 93 25 53 88 4 80 20 143 
127 100 131 76 47 84 60 154 65 149 
74 35 140 49 141 91 136 113 48 130 
12 67 7 111 114 98 11 70 8 92 
19 104 132 78 128 24 160 115 57 38 
137 43 81 121 146 119 79 126 157 75 
15 32 96 133 77 44 69 58 90 22 
83 152 52 116 26 162 94 86 2 62 
73 63 64 89 163 10 37 145 139 99 
55 110 27 51 156 34 1 46 28 61 
155 68 54 135 30 159 106 3 72 59 
85 87 103 107 147 39 109 101 16 13 
150 29 9 66 144 23 123 82 134 148 
40 124 161 33 
